
Gurobi 12.0.2 (win64) logging started Wed Jun  4 16:56:03 2025

Set parameter LogFile to value "C:\Ioana\_uni\honours\slp\algorithm\Main_files\results\others\fatty_acids\Task_001_Sample003_irr_gurobi.log"
Gurobi Optimizer version 12.0.2 build v12.0.2rc0 (win64 - Windows 11.0 (26100.2))

CPU model: Intel(R) Core(TM) Ultra 5 125H, instruction set [SSE2|AVX|AVX2]
Thread count: 14 physical cores, 18 logical processors, using up to 18 threads

Non-default parameters:
TimeLimit  2200

Optimize a model with 47226 rows, 34495 columns and 146682 nonzeros
Model fingerprint: 0xa6ab24e7
Variable types: 17250 continuous, 17245 integer (17245 binary)
Coefficient statistics:
  Matrix range     [1e-04, 8e+04]
  Objective range  [2e-05, 1e+01]
  Bounds range     [1e+00, 1e+03]
  RHS range        [1e+00, 1e+00]
Presolve removed 30825 rows and 21542 columns
Presolve time: 0.48s
Presolved: 16401 rows, 12953 columns, 54577 nonzeros
Variable types: 6410 continuous, 6543 integer (6543 binary)
Found heuristic solution: objective 23.9752226

Root relaxation: objective 1.760039e-03, 171 iterations, 0.03 seconds (0.01 work units)

    Nodes    |    Current Node    |     Objective Bounds      |     Work
 Expl Unexpl |  Obj  Depth IntInf | Incumbent    BestBd   Gap | It/Node Time

     0     0    0.00176    0    4   23.97522    0.00176   100%     -    0s
H    0     0                       0.0067054    0.00176  73.8%     -    0s
     0     0    0.00176    0    4    0.00671    0.00176  73.8%     -    0s

Explored 1 nodes (171 simplex iterations) in 0.68 seconds (0.47 work units)
Thread count was 18 (of 18 available processors)

Solution count 2: 0.00670543 23.9752 

Optimal solution found (tolerance 1.00e-04)
Best objective 6.705425433106e-03, best bound 6.705425433106e-03, gap 0.0000%
